c .nnodes 80
c .nvars 128
c .nsuppvars 128
c .ids  0 1 2 3 4 5 6 7 8 9 10 11 12 13 14 15 16 17 18 19 20 21 22 23 24 25 26 27 28 29 30 31 32 33 34 35 36 37 38 39 40 41 42 43 44 45 46 47 48 49 50 51 52 53 54 55 56 57 58 59 60 61 62 63 64 65 66 67 68 69 70 71 72 73 74 75 76 77 78 79 80 81 82 83 84 85 86 87 88 89 90 91 92 93 94 95 96 97 98 99 100 101 102 103 104 105 106 107 108 109 110 111 112 113 114 115 116 117 118 119 120 121 122 123 124 125 126 127 
c .cnfids  342 406 343 407 280 344 281 345 282 346 283 347 284 348 285 349 286 350 287 351 288 352 289 353 290 354 291 355 292 356 293 357 294 358 295 359 296 360 297 361 298 362 299 363 300 364 301 365 302 366 303 367 304 368 305 369 306 370 307 371 308 372 309 373 310 374 311 375 312 376 313 377 314 378 315 379 316 380 317 381 318 382 319 383 320 384 321 385 322 386 323 387 324 388 325 389 326 390 327 391 328 392 329 393 330 394 331 395 332 396 333 397 334 398 335 399 336 400 337 401 338 402 339 403 340 404 341 405 
c .nroots 1
c .rootids 2
p cnf 408 1194
3 4 135 137 -139 0
3 4 -135 -137 -139 0
-3 139 0
-3 -135 137 0
-3 -4 0
-3 135 -137 0
4 -5 -71 0
4 5 71 0
-4 5 -71 0
-4 -5 71 0
5 -6 -70 0
5 6 70 0
-5 6 -70 0
-5 -6 70 0
6 344 7 0
6 345 7 0
-6 -7 0
-6 -344 -345 0
7 344 -345 8 0
7 -344 345 8 0
-7 -8 0
-7 344 345 0
-7 -344 -345 0
8 346 9 0
8 347 9 0
-8 -9 0
-8 -346 -347 0
9 346 -347 10 0
9 -346 347 10 0
-9 -10 0
-9 346 347 0
-9 -346 -347 0
10 348 11 0
10 349 11 0
-10 -11 0
-10 -348 -349 0
11 12 -69 0
-11 -12 0
-11 69 0
12 350 13 0
12 351 13 0
-12 -13 0
-12 -350 -351 0
13 350 -351 14 0
13 -350 351 14 0
-13 -14 0
-13 350 351 0
-13 -350 -351 0
14 352 15 0
14 353 15 0
-14 -15 0
-14 -352 -353 0
15 352 -353 16 0
15 -352 353 16 0
-15 -16 0
-15 352 353 0
-15 -352 -353 0
16 354 17 0
16 355 17 0
-16 -17 0
-16 -354 -355 0
17 354 -355 18 0
17 -354 355 18 0
-17 -18 0
-17 354 355 0
-17 -354 -355 0
18 356 19 0
18 357 19 0
-18 -19 0
-18 -356 -357 0
19 356 -357 20 0
19 -356 357 20 0
-19 -20 0
-19 356 357 0
-19 -356 -357 0
20 358 21 0
20 359 21 0
-20 -21 0
-20 -358 -359 0
21 358 -359 22 0
21 -358 359 22 0
-21 -22 0
-21 358 359 0
-21 -358 -359 0
22 360 23 0
22 361 23 0
-22 -23 0
-22 -360 -361 0
23 360 -361 24 0
23 -360 361 24 0
-23 -24 0
-23 360 361 0
-23 -360 -361 0
24 362 25 0
24 363 25 0
-24 -25 0
-24 -362 -363 0
25 362 -363 26 0
25 -362 363 26 0
-25 -26 0
-25 362 363 0
-25 -362 -363 0
26 364 27 0
26 365 27 0
-26 -27 0
-26 -364 -365 0
27 364 -365 28 0
27 -364 365 28 0
-27 -28 0
-27 364 365 0
-27 -364 -365 0
28 366 29 0
28 367 29 0
-28 -29 0
-28 -366 -367 0
29 366 -367 30 0
29 -366 367 30 0
-29 -30 0
-29 366 367 0
-29 -366 -367 0
30 368 31 0
30 369 31 0
-30 -31 0
-30 -368 -369 0
31 368 -369 32 0
31 -368 369 32 0
-31 -32 0
-31 368 369 0
-31 -368 -369 0
32 370 33 0
32 371 33 0
-32 -33 0
-32 -370 -371 0
33 370 -371 34 0
33 -370 371 34 0
-33 -34 0
-33 370 371 0
-33 -370 -371 0
34 372 35 0
34 373 35 0
-34 -35 0
-34 -372 -373 0
35 372 -373 36 0
35 -372 373 36 0
-35 -36 0
-35 372 373 0
-35 -372 -373 0
36 374 37 0
36 375 37 0
-36 -37 0
-36 -374 -375 0
37 374 -375 38 0
37 -374 375 38 0
-37 -38 0
-37 374 375 0
-37 -374 -375 0
38 376 39 0
38 377 39 0
-38 -39 0
-38 -376 -377 0
39 376 -377 40 0
39 -376 377 40 0
-39 -40 0
-39 376 377 0
-39 -376 -377 0
40 378 41 0
40 379 41 0
-40 -41 0
-40 -378 -379 0
41 378 -379 42 0
41 -378 379 42 0
-41 -42 0
-41 378 379 0
-41 -378 -379 0
42 380 43 0
42 381 43 0
-42 -43 0
-42 -380 -381 0
43 44 -68 0
-43 -44 0
-43 68 0
44 382 45 0
44 383 45 0
-44 -45 0
-44 -382 -383 0
45 382 -383 46 0
45 -382 383 46 0
-45 -46 0
-45 382 383 0
-45 -382 -383 0
46 384 47 0
46 385 47 0
-46 -47 0
-46 -384 -385 0
47 384 -385 48 0
47 -384 385 48 0
-47 -48 0
-47 384 385 0
-47 -384 -385 0
48 386 49 0
48 387 49 0
-48 -49 0
-48 -386 -387 0
49 386 -387 50 0
49 -386 387 50 0
-49 -50 0
-49 386 387 0
-49 -386 -387 0
50 388 51 0
50 389 51 0
-50 -51 0
-50 -388 -389 0
51 52 -67 0
-51 -52 0
-51 67 0
52 390 53 0
52 391 53 0
-52 -53 0
-52 -390 -391 0
53 390 -391 54 0
53 -390 391 54 0
-53 -54 0
-53 390 391 0
-53 -390 -391 0
54 392 55 0
54 393 55 0
-54 -55 0
-54 -392 -393 0
55 56 -66 0
-55 -56 0
-55 66 0
56 394 57 0
56 395 57 0
-56 -57 0
-56 -394 -395 0
57 394 -395 58 0
57 -394 395 58 0
-57 -58 0
-57 394 395 0
-57 -394 -395 0
58 396 59 0
58 397 59 0
-58 -59 0
-58 -396 -397 0
59 396 -397 60 0
59 -396 397 60 0
-59 -60 0
-59 396 397 0
-59 -396 -397 0
60 398 61 0
60 399 61 0
-60 -61 0
-60 -398 -399 0
61 398 -399 62 0
61 -398 399 62 0
-61 -62 0
-61 398 399 0
-61 -398 -399 0
62 400 63 0
62 401 63 0
-62 -63 0
-62 -400 -401 0
63 400 -401 64 0
63 -400 401 64 0
-63 -64 0
-63 400 401 0
-63 -400 -401 0
64 402 65 0
64 403 65 0
64 402 403 0
-64 -402 -403 0
-64 -403 -65 0
-64 -402 -65 0
65 -404 -405 0
-65 404 0
-65 405 0
66 392 -393 0
66 -392 393 0
-66 -392 -393 0
-66 392 393 0
67 388 -389 0
67 -388 389 0
-67 -388 -389 0
-67 388 389 0
68 380 -381 0
68 -380 381 0
-68 -380 -381 0
-68 380 381 0
69 348 -349 0
69 -348 349 0
-69 -348 -349 0
-69 348 349 0
70 406 -407 0
70 -406 407 0
-70 -406 -407 0
-70 406 407 0
71 -72 -134 0
71 72 134 0
-71 72 -134 0
-71 -72 134 0
72 280 73 0
72 281 73 0
-72 -73 0
-72 -280 -281 0
73 280 -281 74 0
73 -280 281 74 0
-73 -74 0
-73 280 281 0
-73 -280 -281 0
74 282 75 0
74 283 75 0
-74 -75 0
-74 -282 -283 0
75 282 -283 76 0
75 -282 283 76 0
-75 -76 0
-75 282 283 0
-75 -282 -283 0
76 284 77 0
76 285 77 0
-76 -77 0
-76 -284 -285 0
77 284 -285 78 0
77 -284 285 78 0
-77 -78 0
-77 284 285 0
-77 -284 -285 0
78 286 79 0
78 287 79 0
-78 -79 0
-78 -286 -287 0
79 286 -287 80 0
79 -286 287 80 0
-79 -80 0
-79 286 287 0
-79 -286 -287 0
80 288 81 0
80 289 81 0
-80 -81 0
-80 -288 -289 0
81 288 -289 82 0
81 -288 289 82 0
-81 -82 0
-81 288 289 0
-81 -288 -289 0
82 290 83 0
82 291 83 0
-82 -83 0
-82 -290 -291 0
83 290 -291 84 0
83 -290 291 84 0
-83 -84 0
-83 290 291 0
-83 -290 -291 0
84 292 85 0
84 293 85 0
-84 -85 0
-84 -292 -293 0
85 292 -293 86 0
85 -292 293 86 0
-85 -86 0
-85 292 293 0
-85 -292 -293 0
86 294 87 0
86 295 87 0
-86 -87 0
-86 -294 -295 0
87 294 -295 88 0
87 -294 295 88 0
-87 -88 0
-87 294 295 0
-87 -294 -295 0
88 296 89 0
88 297 89 0
-88 -89 0
-88 -296 -297 0
89 296 -297 90 0
89 -296 297 90 0
-89 -90 0
-89 296 297 0
-89 -296 -297 0
90 298 91 0
90 299 91 0
-90 -91 0
-90 -298 -299 0
91 298 -299 92 0
91 -298 299 92 0
-91 -92 0
-91 298 299 0
-91 -298 -299 0
92 300 93 0
92 301 93 0
-92 -93 0
-92 -300 -301 0
93 300 -301 94 0
93 -300 301 94 0
-93 -94 0
-93 300 301 0
-93 -300 -301 0
94 302 95 0
94 303 95 0
-94 -95 0
-94 -302 -303 0
95 302 -303 96 0
95 -302 303 96 0
-95 -96 0
-95 302 303 0
-95 -302 -303 0
96 304 97 0
96 305 97 0
-96 -97 0
-96 -304 -305 0
97 304 -305 98 0
97 -304 305 98 0
-97 -98 0
-97 304 305 0
-97 -304 -305 0
98 306 99 0
98 307 99 0
-98 -99 0
-98 -306 -307 0
99 306 -307 100 0
99 -306 307 100 0
-99 -100 0
-99 306 307 0
-99 -306 -307 0
100 308 101 0
100 309 101 0
-100 -101 0
-100 -308 -309 0
101 308 -309 102 0
101 -308 309 102 0
-101 -102 0
-101 308 309 0
-101 -308 -309 0
102 310 103 0
102 311 103 0
-102 -103 0
-102 -310 -311 0
103 310 -311 104 0
103 -310 311 104 0
-103 -104 0
-103 310 311 0
-103 -310 -311 0
104 312 105 0
104 313 105 0
-104 -105 0
-104 -312 -313 0
105 312 -313 106 0
105 -312 313 106 0
-105 -106 0
-105 312 313 0
-105 -312 -313 0
106 314 107 0
106 315 107 0
-106 -107 0
-106 -314 -315 0
107 314 -315 108 0
107 -314 315 108 0
-107 -108 0
-107 314 315 0
-107 -314 -315 0
108 316 109 0
108 317 109 0
-108 -109 0
-108 -316 -317 0
109 316 -317 110 0
109 -316 317 110 0
-109 -110 0
-109 316 317 0
-109 -316 -317 0
110 318 111 0
110 319 111 0
-110 -111 0
-110 -318 -319 0
111 318 -319 112 0
111 -318 319 112 0
-111 -112 0
-111 318 319 0
-111 -318 -319 0
112 320 113 0
112 321 113 0
-112 -113 0
-112 -320 -321 0
113 320 -321 114 0
113 -320 321 114 0
-113 -114 0
-113 320 321 0
-113 -320 -321 0
114 322 115 0
114 323 115 0
-114 -115 0
-114 -322 -323 0
115 322 -323 116 0
115 -322 323 116 0
-115 -116 0
-115 322 323 0
-115 -322 -323 0
116 324 117 0
116 325 117 0
-116 -117 0
-116 -324 -325 0
117 324 -325 118 0
117 -324 325 118 0
-117 -118 0
-117 324 325 0
-117 -324 -325 0
118 326 119 0
118 327 119 0
-118 -119 0
-118 -326 -327 0
119 326 -327 120 0
119 -326 327 120 0
-119 -120 0
-119 326 327 0
-119 -326 -327 0
120 328 121 0
120 329 121 0
-120 -121 0
-120 -328 -329 0
121 328 -329 122 0
121 -328 329 122 0
-121 -122 0
-121 328 329 0
-121 -328 -329 0
122 330 123 0
122 331 123 0
-122 -123 0
-122 -330 -331 0
123 330 -331 124 0
123 -330 331 124 0
-123 -124 0
-123 330 331 0
-123 -330 -331 0
124 332 125 0
124 333 125 0
-124 -125 0
-124 -332 -333 0
125 126 -133 0
-125 -126 0
-125 133 0
126 334 127 0
126 335 127 0
-126 -127 0
-126 -334 -335 0
127 334 -335 128 0
127 -334 335 128 0
-127 -128 0
-127 334 335 0
-127 -334 -335 0
128 336 129 0
128 337 129 0
-128 -129 0
-128 -336 -337 0
129 130 -132 0
-129 -130 0
-129 132 0
130 338 131 0
130 339 131 0
130 338 339 0
-130 -338 -339 0
-130 -339 -131 0
-130 -338 -131 0
131 -340 -341 0
-131 340 0
-131 341 0
132 336 -337 0
132 -336 337 0
-132 -336 -337 0
-132 336 337 0
133 332 -333 0
133 -332 333 0
-133 -332 -333 0
-133 332 333 0
134 -342 -343 0
134 342 343 0
-134 342 -343 0
-134 -342 343 0
135 -74 -136 0
135 74 136 0
-135 74 -136 0
-135 -74 136 0
136 280 -281 0
136 -280 281 0
-136 -280 -281 0
-136 280 281 0
137 -8 -138 0
137 8 138 0
-137 8 -138 0
-137 -8 138 0
138 344 -345 0
138 -344 345 0
-138 -344 -345 0
-138 344 345 0
139 -140 -142 -144 0
139 140 142 -144 0
-139 144 0
-139 -140 142 0
-139 140 -142 0
140 -76 -141 0
140 76 141 0
-140 76 -141 0
-140 -76 141 0
141 282 -283 0
141 -282 283 0
-141 -282 -283 0
-141 282 283 0
142 -10 -143 0
142 10 143 0
-142 10 -143 0
-142 -10 143 0
143 346 -347 0
143 -346 347 0
-143 -346 -347 0
-143 346 347 0
144 -145 -147 -148 0
144 145 147 -148 0
-144 148 0
-144 -145 147 0
-144 145 -147 0
145 -78 -146 0
145 78 146 0
-145 78 -146 0
-145 -78 146 0
146 284 -285 0
146 -284 285 0
-146 -284 -285 0
-146 284 285 0
147 -12 -69 0
147 12 69 0
-147 12 -69 0
-147 -12 69 0
148 -149 -151 -153 0
148 149 151 -153 0
-148 153 0
-148 -149 151 0
-148 149 -151 0
149 -80 -150 0
149 80 150 0
-149 80 -150 0
-149 -80 150 0
150 286 -287 0
150 -286 287 0
-150 -286 -287 0
-150 286 287 0
151 -14 -152 0
151 14 152 0
-151 14 -152 0
-151 -14 152 0
152 350 -351 0
152 -350 351 0
-152 -350 -351 0
-152 350 351 0
153 -154 -156 -158 0
153 154 156 -158 0
-153 158 0
-153 -154 156 0
-153 154 -156 0
154 -82 -155 0
154 82 155 0
-154 82 -155 0
-154 -82 155 0
155 288 -289 0
155 -288 289 0
-155 -288 -289 0
-155 288 289 0
156 -16 -157 0
156 16 157 0
-156 16 -157 0
-156 -16 157 0
157 352 -353 0
157 -352 353 0
-157 -352 -353 0
-157 352 353 0
158 -159 -161 -163 0
158 159 161 -163 0
-158 163 0
-158 -159 161 0
-158 159 -161 0
159 -84 -160 0
159 84 160 0
-159 84 -160 0
-159 -84 160 0
160 290 -291 0
160 -290 291 0
-160 -290 -291 0
-160 290 291 0
161 -18 -162 0
161 18 162 0
-161 18 -162 0
-161 -18 162 0
162 354 -355 0
162 -354 355 0
-162 -354 -355 0
-162 354 355 0
163 -164 -166 -168 0
163 164 166 -168 0
-163 168 0
-163 -164 166 0
-163 164 -166 0
164 -86 -165 0
164 86 165 0
-164 86 -165 0
-164 -86 165 0
165 292 -293 0
165 -292 293 0
-165 -292 -293 0
-165 292 293 0
166 -20 -167 0
166 20 167 0
-166 20 -167 0
-166 -20 167 0
167 356 -357 0
167 -356 357 0
-167 -356 -357 0
-167 356 357 0
168 -169 -171 -173 0
168 169 171 -173 0
-168 173 0
-168 -169 171 0
-168 169 -171 0
169 -88 -170 0
169 88 170 0
-169 88 -170 0
-169 -88 170 0
170 294 -295 0
170 -294 295 0
-170 -294 -295 0
-170 294 295 0
171 -22 -172 0
171 22 172 0
-171 22 -172 0
-171 -22 172 0
172 358 -359 0
172 -358 359 0
-172 -358 -359 0
-172 358 359 0
173 -174 -176 -178 0
173 174 176 -178 0
-173 178 0
-173 -174 176 0
-173 174 -176 0
174 -90 -175 0
174 90 175 0
-174 90 -175 0
-174 -90 175 0
175 296 -297 0
175 -296 297 0
-175 -296 -297 0
-175 296 297 0
176 -24 -177 0
176 24 177 0
-176 24 -177 0
-176 -24 177 0
177 360 -361 0
177 -360 361 0
-177 -360 -361 0
-177 360 361 0
178 -179 -181 -183 0
178 179 181 -183 0
-178 183 0
-178 -179 181 0
-178 179 -181 0
179 -92 -180 0
179 92 180 0
-179 92 -180 0
-179 -92 180 0
180 298 -299 0
180 -298 299 0
-180 -298 -299 0
-180 298 299 0
181 -26 -182 0
181 26 182 0
-181 26 -182 0
-181 -26 182 0
182 362 -363 0
182 -362 363 0
-182 -362 -363 0
-182 362 363 0
183 -184 -186 -188 0
183 184 186 -188 0
-183 188 0
-183 -184 186 0
-183 184 -186 0
184 -94 -185 0
184 94 185 0
-184 94 -185 0
-184 -94 185 0
185 300 -301 0
185 -300 301 0
-185 -300 -301 0
-185 300 301 0
186 -28 -187 0
186 28 187 0
-186 28 -187 0
-186 -28 187 0
187 364 -365 0
187 -364 365 0
-187 -364 -365 0
-187 364 365 0
188 -189 -191 -193 0
188 189 191 -193 0
-188 193 0
-188 -189 191 0
-188 189 -191 0
189 -96 -190 0
189 96 190 0
-189 96 -190 0
-189 -96 190 0
190 302 -303 0
190 -302 303 0
-190 -302 -303 0
-190 302 303 0
191 -30 -192 0
191 30 192 0
-191 30 -192 0
-191 -30 192 0
192 366 -367 0
192 -366 367 0
-192 -366 -367 0
-192 366 367 0
193 -194 -196 -198 0
193 194 196 -198 0
-193 198 0
-193 -194 196 0
-193 194 -196 0
194 -98 -195 0
194 98 195 0
-194 98 -195 0
-194 -98 195 0
195 304 -305 0
195 -304 305 0
-195 -304 -305 0
-195 304 305 0
196 -32 -197 0
196 32 197 0
-196 32 -197 0
-196 -32 197 0
197 368 -369 0
197 -368 369 0
-197 -368 -369 0
-197 368 369 0
198 -199 -201 -203 0
198 199 201 -203 0
-198 203 0
-198 -199 201 0
-198 199 -201 0
199 -100 -200 0
199 100 200 0
-199 100 -200 0
-199 -100 200 0
200 306 -307 0
200 -306 307 0
-200 -306 -307 0
-200 306 307 0
201 -34 -202 0
201 34 202 0
-201 34 -202 0
-201 -34 202 0
202 370 -371 0
202 -370 371 0
-202 -370 -371 0
-202 370 371 0
203 -204 -206 -208 0
203 204 206 -208 0
-203 208 0
-203 -204 206 0
-203 204 -206 0
204 -102 -205 0
204 102 205 0
-204 102 -205 0
-204 -102 205 0
205 308 -309 0
205 -308 309 0
-205 -308 -309 0
-205 308 309 0
206 -36 -207 0
206 36 207 0
-206 36 -207 0
-206 -36 207 0
207 372 -373 0
207 -372 373 0
-207 -372 -373 0
-207 372 373 0
208 -209 -211 -213 0
208 209 211 -213 0
-208 213 0
-208 -209 211 0
-208 209 -211 0
209 -104 -210 0
209 104 210 0
-209 104 -210 0
-209 -104 210 0
210 310 -311 0
210 -310 311 0
-210 -310 -311 0
-210 310 311 0
211 -38 -212 0
211 38 212 0
-211 38 -212 0
-211 -38 212 0
212 374 -375 0
212 -374 375 0
-212 -374 -375 0
-212 374 375 0
213 -214 -216 -218 0
213 214 216 -218 0
-213 218 0
-213 -214 216 0
-213 214 -216 0
214 -106 -215 0
214 106 215 0
-214 106 -215 0
-214 -106 215 0
215 312 -313 0
215 -312 313 0
-215 -312 -313 0
-215 312 313 0
216 -40 -217 0
216 40 217 0
-216 40 -217 0
-216 -40 217 0
217 376 -377 0
217 -376 377 0
-217 -376 -377 0
-217 376 377 0
218 -219 -221 -223 0
218 219 221 -223 0
-218 223 0
-218 -219 221 0
-218 219 -221 0
219 -108 -220 0
219 108 220 0
-219 108 -220 0
-219 -108 220 0
220 314 -315 0
220 -314 315 0
-220 -314 -315 0
-220 314 315 0
221 -42 -222 0
221 42 222 0
-221 42 -222 0
-221 -42 222 0
222 378 -379 0
222 -378 379 0
-222 -378 -379 0
-222 378 379 0
223 -224 -226 -227 0
223 224 226 -227 0
-223 227 0
-223 -224 226 0
-223 224 -226 0
224 -110 -225 0
224 110 225 0
-224 110 -225 0
-224 -110 225 0
225 316 -317 0
225 -316 317 0
-225 -316 -317 0
-225 316 317 0
226 -44 -68 0
226 44 68 0
-226 44 -68 0
-226 -44 68 0
227 -228 -230 -232 0
227 228 230 -232 0
-227 232 0
-227 -228 230 0
-227 228 -230 0
228 -112 -229 0
228 112 229 0
-228 112 -229 0
-228 -112 229 0
229 318 -319 0
229 -318 319 0
-229 -318 -319 0
-229 318 319 0
230 -46 -231 0
230 46 231 0
-230 46 -231 0
-230 -46 231 0
231 382 -383 0
231 -382 383 0
-231 -382 -383 0
-231 382 383 0
232 -233 -235 -237 0
232 233 235 -237 0
-232 237 0
-232 -233 235 0
-232 233 -235 0
233 -114 -234 0
233 114 234 0
-233 114 -234 0
-233 -114 234 0
234 320 -321 0
234 -320 321 0
-234 -320 -321 0
-234 320 321 0
235 -48 -236 0
235 48 236 0
-235 48 -236 0
-235 -48 236 0
236 384 -385 0
236 -384 385 0
-236 -384 -385 0
-236 384 385 0
237 -238 -240 -242 0
237 238 240 -242 0
-237 242 0
-237 -238 240 0
-237 238 -240 0
238 -116 -239 0
238 116 239 0
-238 116 -239 0
-238 -116 239 0
239 322 -323 0
239 -322 323 0
-239 -322 -323 0
-239 322 323 0
240 -50 -241 0
240 50 241 0
-240 50 -241 0
-240 -50 241 0
241 386 -387 0
241 -386 387 0
-241 -386 -387 0
-241 386 387 0
242 -243 -245 -246 0
242 243 245 -246 0
-242 246 0
-242 -243 245 0
-242 243 -245 0
243 -118 -244 0
243 118 244 0
-243 118 -244 0
-243 -118 244 0
244 324 -325 0
244 -324 325 0
-244 -324 -325 0
-244 324 325 0
245 -52 -67 0
245 52 67 0
-245 52 -67 0
-245 -52 67 0
246 -247 -249 -251 0
246 247 249 -251 0
-246 251 0
-246 -247 249 0
-246 247 -249 0
247 -120 -248 0
247 120 248 0
-247 120 -248 0
-247 -120 248 0
248 326 -327 0
248 -326 327 0
-248 -326 -327 0
-248 326 327 0
249 -54 -250 0
249 54 250 0
-249 54 -250 0
-249 -54 250 0
250 390 -391 0
250 -390 391 0
-250 -390 -391 0
-250 390 391 0
251 -252 -254 -255 0
251 252 254 -255 0
-251 255 0
-251 -252 254 0
-251 252 -254 0
252 -122 -253 0
252 122 253 0
-252 122 -253 0
-252 -122 253 0
253 328 -329 0
253 -328 329 0
-253 -328 -329 0
-253 328 329 0
254 -56 -66 0
254 56 66 0
-254 56 -66 0
-254 -56 66 0
255 -256 -258 -260 0
255 256 258 -260 0
-255 260 0
-255 -256 258 0
-255 256 -258 0
256 -124 -257 0
256 124 257 0
-256 124 -257 0
-256 -124 257 0
257 330 -331 0
257 -330 331 0
-257 -330 -331 0
-257 330 331 0
258 -58 -259 0
258 58 259 0
-258 58 -259 0
-258 -58 259 0
259 394 -395 0
259 -394 395 0
-259 -394 -395 0
-259 394 395 0
260 -261 -262 -264 0
260 261 262 -264 0
-260 264 0
-260 -261 262 0
-260 261 -262 0
261 -126 -133 0
261 126 133 0
-261 126 -133 0
-261 -126 133 0
262 -60 -263 0
262 60 263 0
-262 60 -263 0
-262 -60 263 0
263 396 -397 0
263 -396 397 0
-263 -396 -397 0
-263 396 397 0
264 -265 -267 -269 0
264 265 267 -269 0
-264 269 0
-264 -265 267 0
-264 265 -267 0
265 -128 -266 0
265 128 266 0
-265 128 -266 0
-265 -128 266 0
266 334 -335 0
266 -334 335 0
-266 -334 -335 0
-266 334 335 0
267 -62 -268 0
267 62 268 0
-267 62 -268 0
-267 -62 268 0
268 398 -399 0
268 -398 399 0
-268 -398 -399 0
-268 398 399 0
269 -270 -271 -273 0
269 270 271 -273 0
-269 273 0
-269 -270 271 0
-269 270 -271 0
270 -130 -132 0
270 130 132 0
-270 130 -132 0
-270 -130 132 0
271 -64 -272 0
271 64 272 0
-271 64 -272 0
-271 -64 272 0
272 400 -401 0
272 -400 401 0
-272 -400 -401 0
-272 400 401 0
273 274 276 -278 -279 0
273 -274 -276 -278 -279 0
273 274 276 278 279 0
273 -274 -276 278 279 0
-273 274 -276 0
-273 -274 276 0
-273 278 -279 0
-273 -278 279 0
274 131 -275 0
274 -131 275 0
-274 -131 -275 0
-274 131 275 0
275 338 -339 0
275 -338 339 0
-275 -338 -339 0
-275 338 339 0
276 65 -277 0
276 -65 277 0
-276 -65 -277 0
-276 65 277 0
277 402 -403 0
277 -402 403 0
-277 -402 -403 0
-277 402 403 0
278 340 -341 0
278 -340 341 0
-278 -340 -341 0
-278 340 341 0
279 404 -405 0
279 -404 405 0
-279 -404 -405 0
-279 404 405 0
408 0
2 -3 0
-2 3 0
2 0

